1628
52 74 27 51 42 77 78 95 25 55 58 87 12 60 10 14 26 39 45 38 5 72 73 9 92 28 94 62 83 64 29 66 82 75 47 43 89 16 49 76 86 24 18 61 67 69 84 35 40 63 23 3 7 17 54 11 65 99 20 79 85 48 44 68 1 91 81 2 36 13 4 33 96 37 15 30 88 8 93 71 31 53 98 50 46 21 6 59 56 70 34 57 80 32 90 97 41 22 19 
